language ESSENCE' 1.0
letting AssignmentMatrix be [[0, 0, 0, 0, 0, 0, 0, 1, 1, 1, 1, 1, 1, 1, 0], 
[0, 0, 1, 1, 1, 1, 1, 0, 0, 0, 0, 0, 0, 0, 0], 
[0, 0, 0, 0, 0, 0, 0, 0, 0, 0, 0, 0, 0, 0, 1], 
[0, 0, 0, 0, 0, 0, 0, 0, 0, 0, 0, 0, 0, 0, 0], 
[0, 0, 0, 0, 0, 0, 0, 0, 0, 0, 0, 0, 1, 1, 0]]
letting OccupancyVector be [0, 0, 1, 1, 1, 1, 1, 1, 1, 1, 1, 1, 1, 1, 1]
letting Price be [0, 0, 116, 116, 116, 116, 116, 116, 126, 141, 148, 148, 1914, 1914, 1914]
letting VMType be [477, 485, 433, 433, 433, 433, 433, 433, 464, 450, 466, 466, 261, 261, 261]
